Route #1: 11
Route #2: 60 43 36 100 50 80 48 110 19 94 4 33 16
Route #3: 17 6 7
Route #4: 105 42 92 3 26 52 20 109 49 61 87 88 74 107 67 18 90
Route #5: 73 103 25 72 77 56 81 98 39 78 59 114 13 46 97 23 24 66 37
Route #6: 14 71 57 32 12 82 34 62 104 70
Route #7: 86 75 2 8 64 65
Route #8: 47 27 35 99 38 91 40 68 41 44 69 15 9 84 76 85 113 111 112
Route #9: 53 22 83 89 106 28 45 31 115 55 10 79 54 30 51
Route #10: 96 108 58 93 5 102 21 95 63 101 29
